benchmarks/bfuzz0/316302355495421044429538224323120923228.smt2
(set-logic QF_FP)
(declare-const x0 (_ FloatingPoint 8 24))
(declare-const x1 (_ FloatingPoint 8 24))
(declare-const x2 (_ FloatingPoint 8 24))
(declare-const x3 (_ FloatingPoint 8 24))
(declare-const x4 (_ FloatingPoint 8 24))
(declare-const x5 (_ FloatingPoint 8 24))
(declare-const x6 (_ FloatingPoint 8 24))
(declare-const x7 (_ FloatingPoint 8 24))
(declare-const x8 (_ FloatingPoint 8 24))
(declare-const x9 (_ FloatingPoint 8 24))
(declare-const x10 (_ FloatingPoint 8 24))
(declare-const x11 (_ FloatingPoint 8 24))
(declare-const x12 (_ FloatingPoint 8 24))
(declare-const x13 (_ FloatingPoint 8 24))
(declare-const x14 (_ FloatingPoint 8 24))
(declare-const x15 (_ FloatingPoint 8 24))
(declare-const x16 (_ FloatingPoint 8 24))
(declare-const x17 (_ FloatingPoint 8 24))
(declare-const x18 (_ FloatingPoint 8 24))
(declare-const x19 (_ FloatingPoint 8 24))
(declare-const x20 (_ FloatingPoint 8 24))
(declare-const x21 (_ FloatingPoint 8 24))
(declare-const x22 (_ FloatingPoint 8 24))
(declare-const x23 (_ FloatingPoint 8 24))
(declare-const x24 (_ FloatingPoint 8 24))
(declare-const x25 (_ FloatingPoint 8 24))
(declare-const x26 (_ FloatingPoint 8 24))
(declare-const x27 (_ FloatingPoint 8 24))
(declare-const x28 (_ FloatingPoint 8 24))
(assert (fp.eq (fp.mul RNE (fp.add RNE x23 x24) (fp.neg x24)) (fp.sub RNE (fp.mul RNE x15 x11) (fp.neg x9))))
(assert (fp.eq (fp.neg (fp.mul RNE x4 x11)) (fp.mul RNE (fp.mul RNE x28 x28) (fp.add RNE x28 x21))))
(assert (fp.geq (fp.neg (fp.div RNE x19 x14)) (fp.mul RNE (fp.mul RNE x3 x11) (fp.add RNE x26 x14))))
(assert (fp.eq (fp.sub RNE (fp.mul RNE x0 x19) (fp.mul RNE x24 x6)) (fp.mul RNE (fp.div RNE x5 x4) (fp.div RNE x9 x25))))
(assert (fp.lt (fp.sub RNE (fp.neg x28) (fp.add RNE x10 x1)) (fp.neg (fp.div RNE x27 x9))))
(check-sat)
