db/data/316302355495421044429538224323120923228.z3.out
sat
-------------------
478.612565383
